%mem=100gb
%nproc=30
#p rhf/sto-3g neo=(nsh=1,lmax=1,est=4.0) gfinput guess=print 
#
iop33(3=2,4=2,5=2) iop(5/73=1,5/81=0,5/91=10) nosymm

h2co

0,1
c        0.000000    0.000000    0.000000
o        0.000000    0.000000    1.220000
h        0.935307    0.000000   -0.540000
h       -0.935307    0.000000   -0.540000

